Ni 
1.0
        8.6222000122         0.0000000000         0.0000000000
        0.0000000000         9.9560604095         0.0000000000
        0.0000000000         0.0000000000        24.1935997009
   Ni
   80
Direct
     0.332740009         0.500029981         0.336860001   T   T   T
     0.332740009         0.749970019         0.336860001   T   T   T
     0.083990000         0.625000000         0.337700009   T   T   T
     0.163230000         0.999989986         0.424840003   T   T   T
     0.084030000         0.375000000         0.337650001   T   T   T
     0.163230000         0.499989986         0.424840003   T   T   T
     0.833430000         0.500020027         0.336640000   T   T   T
     0.833430000         0.000010000         0.336640000   T   T   T
     0.833430000         0.249980003         0.336640000   T   T   T
     0.163230000         0.250010014         0.424840003   T   T   T
     0.582510000         0.875000000         0.337570012   T   T   T
     0.582510000         0.375000000         0.337570012   T   T   T
     0.163230000         0.750010014         0.424840003   T   T   T
     0.582480013         0.125000000         0.337590009   T   T   T
     0.418870000         0.625000000         0.423669994   T   T   T
     0.582480000         0.625000000         0.337590009   T   T   T
     0.833430000         0.749989986         0.336640000   T   T   T
     0.418870000         0.375000000         0.423610002   T   T   T
     0.418870000         0.875000000         0.423610002   T   T   T
     0.418870000         0.125000000         0.423669994   T   T   T
     0.666670024         0.500000000         0.167999998   F   F   F
     0.666670024         0.000000000         0.167999998   F   F   F
     0.332740009         0.000030000         0.336860001   T   T   T
     0.833329976         0.500000000         0.083999999   F   F   F
     0.833329976         0.000000000         0.083999999   F   F   F
     0.251029998         0.875000000         0.252330005   T   T   T
     0.911740005         0.375000000         0.421860009   T   T   T
     0.670679986         0.999989986         0.422329992   T   T   T
     0.499249995         0.500010014         0.251610011   T   T   T
     0.499249995         0.000010000         0.251610011   T   T   T
     0.499249995         0.249990001         0.251610011   T   T   T
     0.911740005         0.875000000         0.421860009   T   T   T
     0.251029998         0.375000000         0.252330005   T   T   T
     0.083329998         0.875000000         0.083999999   F   F   F
     0.583329976         0.375000000         0.083999999   F   F   F
     0.670690000         0.499989986         0.422329992   T   T   T
     0.833329976         0.250000000         0.083999999   F   F   F
     0.000480000         0.500000000         0.250900000   T   T   T
     0.333330005         0.500000000         0.083999999   F   F   F
     0.583329976         0.875000000         0.083999999   F   F   F
     0.083329998         0.375000000         0.083999999   F   F   F
     0.916670024         0.625000000         0.167999998   F   F   F
     0.916670024         0.125000000         0.167999998   F   F   F
     0.583329976         0.625000000         0.083999999   F   F   F
     0.911689997         0.625000000         0.421909988   T   T   T
     0.333330005         0.000000000         0.083999999   F   F   F
     0.166669995         0.000000000         0.167999998   F   F   F
     0.000480000         0.000000000         0.250900000   T   T   T
     0.911689997         0.125000000         0.421900004   T   T   T
     0.583329976         0.125000000         0.083999999   F   F   F
     0.332740009         0.249970004         0.336860001   T   T   T
     0.666670024         0.750000000         0.167999998   F   F   F
     0.666670024         0.250000000         0.167999998   F   F   F
     0.084030002         0.875000000         0.337650001   T   T   T
     0.083990000         0.125000000         0.337700009   T   T   T
     0.916670024         0.875000000         0.167999998   F   F   F
     0.833329976         0.750000000         0.083999999   F   F   F
     0.166669995         0.500000000         0.167999998   F   F   F
     0.916670024         0.375000000         0.167999998   F   F   F
     0.499249995         0.749989986         0.251610011   T   T   T
     0.000480000         0.750000000         0.250900000   T   T   T
     0.416669995         0.125000000         0.167999998   F   F   F
     0.416669995         0.625000000         0.167999998   F   F   F
     0.166669995         0.750000000         0.167999998   F   F   F
     0.333330005         0.250000000         0.083999999   F   F   F
     0.333330005         0.750000000         0.083999999   F   F   F
     0.083329998         0.625000000         0.083999999   F   F   F
     0.083329998         0.125000000         0.083999999   F   F   F
     0.749759972         0.125000000         0.250640005   T   T   T
     0.166669995         0.250000000         0.167999998   F   F   F
     0.749790013         0.375000000         0.250629991   T   T   T
     0.749759972         0.625000000         0.250640005   T   T   T
     0.251010001         0.625000000         0.252350003   T   T   T
     0.251010001         0.125000000         0.252350003   T   T   T
     0.416669995         0.875000000         0.167999998   F   F   F
     0.749790013         0.875000000         0.250629991   T   T   T
     0.670690000         0.750010014         0.422329992   T   T   T
     0.000480000         0.250000000         0.250900000   T   T   T
     0.670679986         0.250010014         0.422329992   T   T   T
     0.416669995         0.375000000         0.167999998   F   F   F
